p cnf 20 20
20 -9 -16 0
20 -6 12 0
-14 -20 -9 0
-19 -5 -9 0
-6 -4 18 0
-3 7 -8 0
2 6 17 0
-17 -12 -18 0
1 11 -9 0
2 -7 -5 0
20 -4 15 0
-10 2 -7 0
-1 17 13 0
20 -5 -1 0
-10 -6 -18 0
16 7 -6 0
19 -20 14 0
-20 -8 -18 0
2 -4 -18 0
15 8 -19 0
